
Gurobi 11.0.3 (linux64) logging started Mon Aug 25 16:16:50 2025

Set parameter LogFile to value "/home/yihong/Coding/OR_SUC/SUC_epstheta_results_bigM100000_thread4/case24_ieee_rts_theta0.001_epsilon0.2_gurobi_seed50000_num_gen100_N_WDR50_load_scaling_factor1_ori_eps_T1quadra_cost_bc1.03.txt"
Set parameter TimeLimit to value 3600
Gurobi Optimizer version 11.0.3 build v11.0.3rc0 (linux64 - "Ubuntu 20.04.6 LTS")

CPU model: AMD EPYC 7532 32-Core Processor, instruction set [SSE2|AVX|AVX2]
Thread count: 64 physical cores, 128 logical processors, using up to 4 threads

Academic license 2399124 - for non-commercial use only - registered to yi___@ed.ac.uk
Optimize a model with 2261 rows, 1291 columns and 95366 nonzeros
Model fingerprint: 0x48ba20f0
Model has 100 quadratic constraints
Variable types: 1191 continuous, 100 integer (100 binary)
Coefficient statistics:
  Matrix range     [3e-04, 6e+01]
  QMatrix range    [2e-03, 8e-03]
  QLMatrix range   [2e-01, 6e+01]
  Objective range  [1e+00, 1e+00]
  Bounds range     [1e+00, 1e+00]
  RHS range        [5e-02, 8e+03]
Presolve removed 2011 rows and 749 columns
Presolve time: 0.01s
Presolved: 250 rows, 542 columns, 2285 nonzeros
Presolved model has 100 quadratic constraint(s)
Variable types: 442 continuous, 100 integer (100 binary)

Root relaxation: objective 8.579810e+02, 108 iterations, 0.00 seconds (0.00 work units)

    Nodes    |    Current Node    |     Objective Bounds      |     Work
 Expl Unexpl |  Obj  Depth IntInf | Incumbent    BestBd   Gap | It/Node Time

     0     0  857.98104    0    1          -  857.98104      -     -    0s
     0     0 1008.63005    0   54          - 1008.63005      -     -    0s
     0     0 17092.8947    0   28          - 17092.8947      -     -    0s
     0     0 17094.8193    0   28          - 17094.8193      -     -    0s
     0     0 18774.0886    0    3          - 18774.0886      -     -    0s
     0     0 18774.8187    0    1          - 18774.8187      -     -    0s
     0     0 18774.8187    0    1          - 18774.8187      -     -    0s
     0     2 18774.8187    0    1          - 18774.8187      -     -    0s
H   17    18                    18782.099527 18775.6405  0.03%   3.5    0s
*   17    18               5    18782.099527 18775.6405  0.03%   3.7    0s

Cutting planes:
  Gomory: 8
  Implied bound: 37
  MIR: 11
  Flow cover: 78

Explored 19 nodes (652 simplex iterations) in 0.13 seconds (0.08 work units)
Thread count was 4 (of 128 available processors)

Solution count 2: 18782.1 18782.1 

Optimal solution found (tolerance 1.00e-03)
Warning: max constraint violation (1.0863e-07) exceeds tolerance
Best objective 1.878209952669e+04, best bound 1.877564047756e+04, gap 0.0344%

Gurobi 11.0.3 (linux64) logging started Mon Aug 25 16:16:50 2025

Set parameter LogFile to value "/home/yihong/Coding/OR_SUC/SUC_epstheta_results_bigM100000_thread4/case24_ieee_rts_theta0.001_epsilon0.2_gurobi_seed50000_num_gen100_N_WDR50_load_scaling_factor1_ori_eps_T1quadra_cost_bc1.03.txt"
Set parameter TimeLimit to value 3600
Gurobi Optimizer version 11.0.3 build v11.0.3rc0 (linux64 - "Ubuntu 20.04.6 LTS")

CPU model: AMD EPYC 7532 32-Core Processor, instruction set [SSE2|AVX|AVX2]
Thread count: 64 physical cores, 128 logical processors, using up to 4 threads

Academic license 2399124 - for non-commercial use only - registered to yi___@ed.ac.uk
Optimize a model with 5303 rows, 1292 columns and 424551 nonzeros
Model fingerprint: 0xcb90e2f5
Model has 101 quadratic constraints
Variable types: 1192 continuous, 100 integer (100 binary)
Coefficient statistics:
  Matrix range     [3e-04, 6e+01]
  QMatrix range    [2e-03, 5e+01]
  QLMatrix range   [2e-01, 6e+01]
  Objective range  [1e+00, 1e+00]
  Bounds range     [2e-01, 1e+00]
  RHS range        [3e-01, 2e+04]
  QRHS range       [5e-02, 5e-02]
Presolve removed 1580 rows and 709 columns
Presolve time: 0.19s
Presolved: 3825 rows, 684 columns, 85338 nonzeros
Presolved model has 100 quadratic constraint(s)
Presolved model has 1 bilinear constraint(s)
Warning: Model contains variables with very large bounds participating
         in product terms.
         Presolve was not able to compute smaller bounds for these variables.
         Consider bounding these variables or reformulating the model.


Solving non-convex MIQCP

Variable types: 584 continuous, 100 integer (100 binary)

Root relaxation: objective 0.000000e+00, 213 iterations, 0.04 seconds (0.08 work units)

    Nodes    |    Current Node    |     Objective Bounds      |     Work
 Expl Unexpl |  Obj  Depth IntInf | Incumbent    BestBd   Gap | It/Node Time

     0     0    0.00000    0    3          -    0.00000      -     -    0s
     0     0    0.00000    0    2          -    0.00000      -     -    0s
     0     0    0.00000    0    2          -    0.00000      -     -    0s
     0     0    0.00000    0    2          -    0.00000      -     -    0s
     0     0    0.00000    0    2          -    0.00000      -     -    0s
H    0     0                       0.0024290    0.00000   100%     -    0s
     0     0    0.00000    0    4    0.00243    0.00000   100%     -    0s
     0     0    0.00000    0    2    0.00243    0.00000   100%     -    1s
     0     0    0.00000    0    1    0.00243    0.00000   100%     -    1s
H    0     0                       0.0011723    0.00000   100%     -    1s
H    0     0                       0.0011621    0.00000   100%     -    1s
     0     0    0.00000    0    2    0.00116    0.00000   100%     -    1s
     0     0    0.00000    0    2    0.00116    0.00000   100%     -    1s
     0     0    0.00000    0    3    0.00116    0.00000   100%     -    1s
H    0     0                       0.0011619    0.00000   100%     -    1s
     0     0    0.00000    0    3    0.00116    0.00000   100%     -    1s
     0     0    0.00000    0    1    0.00116    0.00000   100%     -    1s
H    0     0                       0.0004557    0.00000   100%     -    1s
     0     0    0.00032    0    2    0.00046    0.00032  29.9%     -    1s
     0     0    0.00032    0    2    0.00046    0.00032  29.9%     -    1s
H    0     0                       0.0004057    0.00032  20.9%     -    1s
H    0     0                       0.0003545    0.00032  9.52%     -    1s
H    0     0                       0.0003544    0.00032  9.51%     -    1s
     0     0    0.00035    0    2    0.00035    0.00035  0.79%     -    1s
     0     0    0.00035    0    2    0.00035    0.00035  0.77%     -    1s
     0     0    0.00035    0    3    0.00035    0.00035  0.61%     -    1s
     0     0    0.00035    0    3    0.00035    0.00035  0.40%     -    1s
H    0     0                       0.0003544    0.00035  0.39%     -    1s
     0     0    0.00035    0    3    0.00035    0.00035  0.39%     -    1s
     0     0    0.00035    0    3    0.00035    0.00035  0.38%     -    1s
     0     0    0.00035    0    2    0.00035    0.00035  0.28%     -    1s
     0     0    0.00035    0    2    0.00035    0.00035  0.27%     -    1s
     0     0    0.00035    0    2    0.00035    0.00035  0.27%     -    1s
     0     0    0.00035    0    2    0.00035    0.00035  0.27%     -    1s
H    0     0                       0.0003541    0.00035  0.19%     -    1s
     0     0    0.00035    0    2    0.00035    0.00035  0.19%     -    1s
     0     0          -    0         0.00035    0.00035  0.09%     -    1s

Cutting planes:
  Gomory: 1
  MIR: 2
  Flow cover: 1

Explored 1 nodes (1368 simplex iterations) in 1.94 seconds (2.43 work units)
Thread count was 4 (of 128 available processors)

Solution count 10: 0.0003541 0.000354376 0.000354407 ... 0.00117229

Optimal solution found (tolerance 1.00e-03)
Best objective 3.540996898893e-04, best bound 3.537879620574e-04, gap 0.0880%
